h=9;
w=9;
s=3;
b=[|0,9,0,0,0,0,0,0,0|8,5,3,1,7,0,0,0,2|0,7,4,0,0,0,9,1,0|0,0,0,2,0,0,0,0,1|5,0,2,0,0,0,0,0,0|0,0,0,0,3,8,2,5,0|4,0,7,5,0,0,1,0,0|9,8,0,4,0,0,7,0,0|0,0,0,6,0,0,0,8,0|];
t=[|1,1,0,0,0,0,1,1,1|0,1,1,1,1,1,0,0,0|0,1,0,1,1,0,1,1,0|1,0,0,0,0,1,1,1,1|1,1,0,1,1,0,0,1,0|0,1,1,1,1,0,0,1,0|0,0,1,1,0,1,1,0,1|1,0,1,0,0,1,1,0,1|1,0,1,0,1,1,0,0,1|];
